\ This file has been generated by DOcplex
\ ENCODING=ISO-8859-1
\Problem name: <decpomdp.DecPOMDP object at 0x104048c40> problem

Maximize
 obj: 0.500000000000 V_0 + 0.500000000000 V_1
Subject To
 c1: - 51.531250000000 a0_0 - 101 a0_1 + 9 a0_2 - V_0 >= 0
 c2: - 101 a0_0 - 50 a0_1 - 100 a0_2 - V_0 >= 0
 c3: 9 a0_0 - 100 a0_1 + 20 a0_2 - V_0 >= 0
 c4: - 51.531250000000 a0_0 + 9 a0_1 - 101 a0_2 - V_1 >= 0
 c5: 9 a0_0 + 20 a0_1 - 100 a0_2 - V_1 >= 0
 c6: - 101 a0_0 - 100 a0_1 - 50 a0_2 - V_1 >= 0
 c7: a0_0 + a0_1 + a0_2 = 1

Bounds
       a0_0 <= 1
       a0_1 <= 1
       a0_2 <= 1
       V_0 Free
       V_1 Free
End
